language Essence 1.3

letting class be function(1 --> 2, 2 --> 1, 3 --> 1, 4 --> 2, 5 --> 1, 6 --> 1, 7 --> 1, 8 --> 1)
letting deck_length be 8
letting deck_width be 68
letting length be function(1 --> 7, 2 --> 3, 3 --> 2, 4 --> 6, 5 --> 6, 6 --> 5, 7 --> 2, 8 --> 2)
letting n_classes be 2
letting n_containers be 8
letting separation be function({1, 2} --> 56)
letting width be function(1 --> 16, 2 --> 7, 3 --> 3, 4 --> 16, 5 --> 7, 6 --> 1, 7 --> 1, 8 --> 2)
